
List of user-set options:

                                    Name   Value                used
                acceptable_compl_inf_tol = 0.001                 yes
              acceptable_constr_viol_tol = 1e-05                 yes
                 acceptable_dual_inf_tol = 100                   yes
                         acceptable_iter = 15                    yes
               acceptable_obj_change_tol = 0.001                 yes
                          acceptable_tol = 10                    yes
                      bound_relax_factor = 1e-12                 yes
                           compl_inf_tol = 1e-06                 yes
                         constr_viol_tol = 1e-06                 yes
                         derivative_test = first-order           yes
            derivative_test_perturbation = 1e-07                 yes
                            dual_inf_tol = 100000                yes
               expect_infeasible_problem = no                    yes
                        file_print_level = 5                     yes
                   hessian_approximation = limited-memory        yes
                           linear_solver = mumps                 yes
                                max_iter = 3000                  yes
                             mu_strategy = adaptive              yes
                nlp_scaling_max_gradient = 100                   yes
                      nlp_scaling_method = gradient-based        yes
                        option_file_name =                        no
                             output_file = fitter-ipopt.log      yes
                             print_level = 5                     yes
             print_options_documentation = no                    yes
                      print_user_options = yes                   yes
                        start_with_resto = no                    yes
                                     tol = 0.001                 yes

******************************************************************************
This program contains Ipopt, a library for large-scale nonlinear optimization.
 Ipopt is released as open source code under the Eclipse Public License (EPL).
         For more information visit http://projects.coin-or.org/Ipopt
******************************************************************************

This is Ipopt version 3.11.9, running with linear solver mumps.
NOTE: Other linear solvers might be more efficient (see Ipopt documentation).

Starting derivative checker for first derivatives.


No errors detected by derivative checker.

Number of nonzeros in equality constraint Jacobian...:        0
Number of nonzeros in inequality constraint Jacobian.:      378
Number of nonzeros in Lagrangian Hessian.............:        0

Total number of variables............................:        7
                     variables with only lower bounds:        1
                variables with lower and upper bounds:        0
                     variables with only upper bounds:        0
Total number of equality constraints.................:        0
Total number of inequality constraints...............:       54
        inequality constraints with only lower bounds:        0
   inequality constraints with lower and upper bounds:        0
        inequality constraints with only upper bounds:       54

iter    objective    inf_pr   inf_du lg(mu)  ||d||  lg(rg) alpha_du alpha_pr  ls
   0  8.5241920e-04 0.00e+00 1.00e+00   0.0 0.00e+00    -  0.00e+00 0.00e+00   0
   1  8.5099462e-03 0.00e+00 3.70e-01  -1.2 6.45e-02    -  7.28e-01 1.00e+00f  1
   2  8.4377770e-03 0.00e+00 5.00e-03  -7.7 1.58e-03    -  9.92e-01 1.00e+00h  1
   3  2.6445874e-03 0.00e+00 9.47e-02  -9.4 4.93e-02    -  1.00e+00 1.00e+00h  1
   4  1.9256307e-03 0.00e+00 1.47e-02 -10.0 1.30e-02    -  1.00e+00 1.00e+00h  1
   5  1.1948287e-03 1.04e-05 1.59e-02  -5.7 1.37e-02    -  1.00e+00 9.97e-01h  1
   6  1.0128646e-03 9.47e-05 2.08e-02  -6.3 7.96e-03    -  1.00e+00 1.00e+00h  1
   7  9.4232541e-04 2.19e-04 1.69e-02  -5.7 7.94e-03    -  1.00e+00 7.26e-01h  1
   8  8.6354636e-04 2.47e-04 7.49e-03  -5.9 9.16e-03    -  8.83e-01 5.67e-01h  1
   9  6.9382756e-04 2.94e-03 2.02e-03  -6.0 1.72e-02    -  9.94e-01 1.00e+00h  1
iter    objective    inf_pr   inf_du lg(mu)  ||d||  lg(rg) alpha_du alpha_pr  ls
  10  7.3313370e-04 7.99e-07 1.00e-03  -6.4 3.08e-03    -  1.00e+00 1.00e+00h  1
  11  7.2909391e-04 0.00e+00 1.81e-04  -6.9 7.55e-04    -  1.00e+00 1.00e+00h  1

Number of Iterations....: 11

                                   (scaled)                 (unscaled)
Objective...............:   7.2909391189725876e-04    7.2909391189725876e-04
Dual infeasibility......:   1.8121234708295625e-04    1.8121234708295625e-04
Constraint violation....:   0.0000000000000000e+00    0.0000000000000000e+00
Complementarity.........:   2.4579858370508625e-07    2.4579858370508625e-07
Overall NLP error.......:   1.8121234708295625e-04    1.8121234708295625e-04


Number of objective function evaluations             = 12
Number of objective gradient evaluations             = 12
Number of equality constraint evaluations            = 0
Number of inequality constraint evaluations          = 12
Number of equality constraint Jacobian evaluations   = 0
Number of inequality constraint Jacobian evaluations = 12
Number of Lagrangian Hessian evaluations             = 0
Total CPU secs in IPOPT (w/o function evaluations)   =      0.041
Total CPU secs in NLP function evaluations           =      0.008

EXIT: Optimal Solution Found.
